35
75
60	1
58	2
57	1
56	1
55	1
53	2
51	2
49	1
45	1
44	1
43	1
42	1
40	1
39	2
38	1
37	3
34	1
31	1
30	2
29	1
28	1
27	1
25	2
22	1
21	1
20	1
18	2
17	1
16	1
13	2
12	2
11	1
9	2
8	3
7	2
